;Number of predicates (nodes) = 11
;Number of variables = 4
;Number of clauses = 14
;
(set-logic HORN)
(declare-fun assign_199_22_5 (Int Int Int Int Int Int Int Int Int Int) Bool)
(declare-fun assert_190_21_5 (Int Int Int Int Int Int Int Int Int Int) Bool)
(declare-fun while_202_19_1 (Int Int Int Int Int Int Int Int Int Int) Bool)
(declare-fun assign_131_18_1 (Int Int Int Int Int Int Int Int Int Int) Bool)
(declare-fun assign_122_15_5 (Int Int Int Int Int Int Int Int Int Int) Bool)
(declare-fun arrayassign_113_14_5 (Int Int Int Int Int Int Int Int Int Int) Bool)
(declare-fun while_125_12_1 (Int Int Int Int Int Int Int Int Int Int) Bool)
(declare-fun assign_58_11_1 (Int Int Int Int Int Int Int Int Int Int) Bool)
(declare-fun assign_52_10_1 (Int Int Int Int Int Int Int Int Int Int) Bool)
(declare-fun end (Int Int Int Int Int Int Int Int Int Int) Bool)
(declare-fun start (Int Int Int Int Int Int Int Int Int Int) Bool)
(assert (forall ((N Int) (a0_ind Int) (a0_val Int) (a1_ind Int) (a1_val Int) (a_copy0_ind Int) (a_copy0_val Int) (a_copy1_ind Int) (a_copy1_val Int) (i Int)) (=> (and (< a0_ind a1_ind) (< a_copy0_ind a_copy1_ind)) (start a_copy0_ind a_copy0_val a_copy1_ind a_copy1_val a0_ind a0_val a1_ind a1_val N i))))
(assert (forall ((N Int) (a0_ind Int) (a0_val Int) (a1_ind Int) (a1_val Int) (a_copy0_ind Int) (a_copy0_val Int) (a_copy1_ind Int) (a_copy1_val Int) (i Int)) (=> (and (< a0_ind a1_ind) (< a_copy0_ind a_copy1_ind) (start a_copy0_ind a_copy0_val a_copy1_ind a_copy1_val a0_ind a0_val a1_ind a1_val N i)) (assign_52_10_1 a_copy0_ind a_copy0_val a_copy1_ind a_copy1_val a0_ind a0_val a1_ind a1_val N i))))
;
;(assign)  N := Support.random()
(assert (forall ((N Int) (a0_ind Int) (a0_val Int) (a1_ind Int) (a1_val Int) (a_copy0_ind Int) (a_copy0_val Int) (a_copy1_ind Int) (a_copy1_val Int) (i Int) (rnd Int)) (=> (and (< a0_ind a1_ind) (< a_copy0_ind a_copy1_ind) (assign_52_10_1 a_copy0_ind a_copy0_val a_copy1_ind a_copy1_val a0_ind a0_val a1_ind a1_val N i)) (assign_58_11_1 a_copy0_ind a_copy0_val a_copy1_ind a_copy1_val a0_ind a0_val a1_ind a1_val rnd i))))
;
;(assign)  i := 0
(assert (forall ((N Int) (a0_ind Int) (a0_val Int) (a1_ind Int) (a1_val Int) (a_copy0_ind Int) (a_copy0_val Int) (a_copy1_ind Int) (a_copy1_val Int) (i Int)) (=> (and (< a0_ind a1_ind) (< a_copy0_ind a_copy1_ind) (assign_58_11_1 a_copy0_ind a_copy0_val a_copy1_ind a_copy1_val a0_ind a0_val a1_ind a1_val N i)) (while_125_12_1 a_copy0_ind a_copy0_val a_copy1_ind a_copy1_val a0_ind a0_val a1_ind a1_val N 0))))
;
;(while)   while((i<N))
(assert (forall ((N Int) (a0_ind Int) (a0_val Int) (a1_ind Int) (a1_val Int) (a_copy0_ind Int) (a_copy0_val Int) (a_copy1_ind Int) (a_copy1_val Int) (i Int)) (=> (and (< a0_ind a1_ind) (< a_copy0_ind a_copy1_ind) (while_125_12_1 a_copy0_ind a_copy0_val a_copy1_ind a_copy1_val a0_ind a0_val a1_ind a1_val N i) (< i N)) (arrayassign_113_14_5 a_copy0_ind a_copy0_val a_copy1_ind a_copy1_val a0_ind a0_val a1_ind a1_val N i))))
(assert (forall ((N Int) (a0_ind Int) (a0_val Int) (a1_ind Int) (a1_val Int) (a_copy0_ind Int) (a_copy0_val Int) (a_copy1_ind Int) (a_copy1_val Int) (i Int)) (=> (and (< a0_ind a1_ind) (< a_copy0_ind a_copy1_ind) (while_125_12_1 a_copy0_ind a_copy0_val a_copy1_ind a_copy1_val a0_ind a0_val a1_ind a1_val N i) (not (< i N))) (assign_131_18_1 a_copy0_ind a_copy0_val a_copy1_ind a_copy1_val a0_ind a0_val a1_ind a1_val N i))))
;
;(aassign) a_copy[i] := a[i]
(assert (forall ((N Int) (a0_ind Int) (a0_val Int) (a1_ind Int) (a1_val Int) (a_copy0_ind Int) (a_copy0_val Int) (a_copy1_ind Int) (a_copy1_val Int) (i Int) (tmp_select_a Int) (tmp_store_a_copy0_ind Int) (tmp_store_a_copy0_val Int) (tmp_store_a_copy1_ind Int) (tmp_store_a_copy1_val Int)) (=> (and (< a0_ind a1_ind) (< a_copy0_ind a_copy1_ind) (arrayassign_113_14_5 a_copy0_ind a_copy0_val a_copy1_ind a_copy1_val a0_ind a0_val a1_ind a1_val N i) (or (and (= a0_ind i) (= tmp_select_a a0_val)) (and (= a1_ind i) (= tmp_select_a a1_val)) (and (< i a0_ind) (< i a1_ind) (arrayassign_113_14_5 a_copy0_ind a_copy0_val a_copy1_ind a_copy1_val i tmp_select_a a1_ind a1_val N i) (< i a0_ind) (arrayassign_113_14_5 a_copy0_ind a_copy0_val a_copy1_ind a_copy1_val i tmp_select_a a0_ind a0_val N i)) (and (< a0_ind i) (< i a1_ind) (< i a1_ind) (arrayassign_113_14_5 a_copy0_ind a_copy0_val a_copy1_ind a_copy1_val i tmp_select_a a1_ind a1_val N i) (< a0_ind i) (arrayassign_113_14_5 a_copy0_ind a_copy0_val a_copy1_ind a_copy1_val a0_ind a0_val i tmp_select_a N i)) (and (< a1_ind i) (< a1_ind i) (arrayassign_113_14_5 a_copy0_ind a_copy0_val a_copy1_ind a_copy1_val a1_ind a1_val i tmp_select_a N i) (< a0_ind i) (arrayassign_113_14_5 a_copy0_ind a_copy0_val a_copy1_ind a_copy1_val a0_ind a0_val i tmp_select_a N i))) (= tmp_store_a_copy0_ind a_copy0_ind) (= tmp_store_a_copy1_ind a_copy1_ind) (or (and (= a_copy0_ind i) (= tmp_store_a_copy1_val a_copy1_val) (= tmp_store_a_copy0_val tmp_select_a)) (and (= a_copy1_ind i) (= tmp_store_a_copy0_val a_copy0_val) (= tmp_store_a_copy1_val tmp_select_a)) (and (not (= a_copy0_ind i)) (not (= a_copy1_ind i)) (= tmp_store_a_copy0_val a_copy0_val) (= tmp_store_a_copy1_val a_copy1_val)))) (assign_122_15_5 tmp_store_a_copy0_ind tmp_store_a_copy0_val tmp_store_a_copy1_ind tmp_store_a_copy1_val a0_ind a0_val a1_ind a1_val N i))))
;
;(assign)  i := (i+1)
(assert (forall ((N Int) (a0_ind Int) (a0_val Int) (a1_ind Int) (a1_val Int) (a_copy0_ind Int) (a_copy0_val Int) (a_copy1_ind Int) (a_copy1_val Int) (i Int)) (=> (and (< a0_ind a1_ind) (< a_copy0_ind a_copy1_ind) (assign_122_15_5 a_copy0_ind a_copy0_val a_copy1_ind a_copy1_val a0_ind a0_val a1_ind a1_val N i)) (while_125_12_1 a_copy0_ind a_copy0_val a_copy1_ind a_copy1_val a0_ind a0_val a1_ind a1_val N (+ i 1)))))
;
;(assign)  i := 0
(assert (forall ((N Int) (a0_ind Int) (a0_val Int) (a1_ind Int) (a1_val Int) (a_copy0_ind Int) (a_copy0_val Int) (a_copy1_ind Int) (a_copy1_val Int) (i Int)) (=> (and (< a0_ind a1_ind) (< a_copy0_ind a_copy1_ind) (assign_131_18_1 a_copy0_ind a_copy0_val a_copy1_ind a_copy1_val a0_ind a0_val a1_ind a1_val N i)) (while_202_19_1 a_copy0_ind a_copy0_val a_copy1_ind a_copy1_val a0_ind a0_val a1_ind a1_val N 0))))
;
;(while)   while((i<N))
(assert (forall ((N Int) (a0_ind Int) (a0_val Int) (a1_ind Int) (a1_val Int) (a_copy0_ind Int) (a_copy0_val Int) (a_copy1_ind Int) (a_copy1_val Int) (i Int)) (=> (and (< a0_ind a1_ind) (< a_copy0_ind a_copy1_ind) (while_202_19_1 a_copy0_ind a_copy0_val a_copy1_ind a_copy1_val a0_ind a0_val a1_ind a1_val N i) (< i N)) (assert_190_21_5 a_copy0_ind a_copy0_val a_copy1_ind a_copy1_val a0_ind a0_val a1_ind a1_val N i))))
(assert (forall ((N Int) (a0_ind Int) (a0_val Int) (a1_ind Int) (a1_val Int) (a_copy0_ind Int) (a_copy0_val Int) (a_copy1_ind Int) (a_copy1_val Int) (i Int)) (=> (and (< a0_ind a1_ind) (< a_copy0_ind a_copy1_ind) (while_202_19_1 a_copy0_ind a_copy0_val a_copy1_ind a_copy1_val a0_ind a0_val a1_ind a1_val N i) (not (< i N))) (end a_copy0_ind a_copy0_val a_copy1_ind a_copy1_val a0_ind a0_val a1_ind a1_val N i))))
;
;(assert)  (a[i]==a_copy[i])
(assert (forall ((N Int) (a0_ind Int) (a0_val Int) (a1_ind Int) (a1_val Int) (a_copy0_ind Int) (a_copy0_val Int) (a_copy1_ind Int) (a_copy1_val Int) (i Int) (tmp_select_a Int) (tmp_select_a_copy Int)) (=> (and (< a0_ind a1_ind) (< a_copy0_ind a_copy1_ind) (assert_190_21_5 a_copy0_ind a_copy0_val a_copy1_ind a_copy1_val a0_ind a0_val a1_ind a1_val N i) (or (and (= a0_ind i) (= tmp_select_a a0_val)) (and (= a1_ind i) (= tmp_select_a a1_val)) (and (< i a0_ind) (< i a1_ind) (assert_190_21_5 a_copy0_ind a_copy0_val a_copy1_ind a_copy1_val i tmp_select_a a1_ind a1_val N i) (< i a0_ind) (assert_190_21_5 a_copy0_ind a_copy0_val a_copy1_ind a_copy1_val i tmp_select_a a0_ind a0_val N i)) (and (< a0_ind i) (< i a1_ind) (< i a1_ind) (assert_190_21_5 a_copy0_ind a_copy0_val a_copy1_ind a_copy1_val i tmp_select_a a1_ind a1_val N i) (< a0_ind i) (assert_190_21_5 a_copy0_ind a_copy0_val a_copy1_ind a_copy1_val a0_ind a0_val i tmp_select_a N i)) (and (< a1_ind i) (< a1_ind i) (assert_190_21_5 a_copy0_ind a_copy0_val a_copy1_ind a_copy1_val a1_ind a1_val i tmp_select_a N i) (< a0_ind i) (assert_190_21_5 a_copy0_ind a_copy0_val a_copy1_ind a_copy1_val a0_ind a0_val i tmp_select_a N i))) (or (and (= a_copy0_ind i) (= tmp_select_a_copy a_copy0_val)) (and (= a_copy1_ind i) (= tmp_select_a_copy a_copy1_val)) (and (< i a_copy0_ind) (< i a_copy1_ind) (assert_190_21_5 i tmp_select_a_copy a_copy1_ind a_copy1_val a0_ind a0_val a1_ind a1_val N i) (or (and (= a0_ind i) (= tmp_select_a a0_val)) (and (= a1_ind i) (= tmp_select_a a1_val)) (and (< i a0_ind) (< i a1_ind) (assert_190_21_5 i tmp_select_a_copy a_copy1_ind a_copy1_val i tmp_select_a a1_ind a1_val N i) (< i a0_ind) (assert_190_21_5 i tmp_select_a_copy a_copy1_ind a_copy1_val i tmp_select_a a0_ind a0_val N i)) (and (< a0_ind i) (< i a1_ind) (< i a1_ind) (assert_190_21_5 i tmp_select_a_copy a_copy1_ind a_copy1_val i tmp_select_a a1_ind a1_val N i) (< a0_ind i) (assert_190_21_5 i tmp_select_a_copy a_copy1_ind a_copy1_val a0_ind a0_val i tmp_select_a N i)) (and (< a1_ind i) (< a1_ind i) (assert_190_21_5 i tmp_select_a_copy a_copy1_ind a_copy1_val a1_ind a1_val i tmp_select_a N i) (< a0_ind i) (assert_190_21_5 i tmp_select_a_copy a_copy1_ind a_copy1_val a0_ind a0_val i tmp_select_a N i))) (< i a_copy0_ind) (assert_190_21_5 i tmp_select_a_copy a_copy0_ind a_copy0_val a0_ind a0_val a1_ind a1_val N i) (or (and (= a0_ind i) (= tmp_select_a a0_val)) (and (= a1_ind i) (= tmp_select_a a1_val)) (and (< i a0_ind) (< i a1_ind) (assert_190_21_5 i tmp_select_a_copy a_copy0_ind a_copy0_val i tmp_select_a a1_ind a1_val N i) (< i a0_ind) (assert_190_21_5 i tmp_select_a_copy a_copy0_ind a_copy0_val i tmp_select_a a0_ind a0_val N i)) (and (< a0_ind i) (< i a1_ind) (< i a1_ind) (assert_190_21_5 i tmp_select_a_copy a_copy0_ind a_copy0_val i tmp_select_a a1_ind a1_val N i) (< a0_ind i) (assert_190_21_5 i tmp_select_a_copy a_copy0_ind a_copy0_val a0_ind a0_val i tmp_select_a N i)) (and (< a1_ind i) (< a1_ind i) (assert_190_21_5 i tmp_select_a_copy a_copy0_ind a_copy0_val a1_ind a1_val i tmp_select_a N i) (< a0_ind i) (assert_190_21_5 i tmp_select_a_copy a_copy0_ind a_copy0_val a0_ind a0_val i tmp_select_a N i)))) (and (< a_copy0_ind i) (< i a_copy1_ind) (< i a_copy1_ind) (assert_190_21_5 i tmp_select_a_copy a_copy1_ind a_copy1_val a0_ind a0_val a1_ind a1_val N i) (or (and (= a0_ind i) (= tmp_select_a a0_val)) (and (= a1_ind i) (= tmp_select_a a1_val)) (and (< i a0_ind) (< i a1_ind) (assert_190_21_5 i tmp_select_a_copy a_copy1_ind a_copy1_val i tmp_select_a a1_ind a1_val N i) (< i a0_ind) (assert_190_21_5 i tmp_select_a_copy a_copy1_ind a_copy1_val i tmp_select_a a0_ind a0_val N i)) (and (< a0_ind i) (< i a1_ind) (< i a1_ind) (assert_190_21_5 i tmp_select_a_copy a_copy1_ind a_copy1_val i tmp_select_a a1_ind a1_val N i) (< a0_ind i) (assert_190_21_5 i tmp_select_a_copy a_copy1_ind a_copy1_val a0_ind a0_val i tmp_select_a N i)) (and (< a1_ind i) (< a1_ind i) (assert_190_21_5 i tmp_select_a_copy a_copy1_ind a_copy1_val a1_ind a1_val i tmp_select_a N i) (< a0_ind i) (assert_190_21_5 i tmp_select_a_copy a_copy1_ind a_copy1_val a0_ind a0_val i tmp_select_a N i))) (< a_copy0_ind i) (assert_190_21_5 a_copy0_ind a_copy0_val i tmp_select_a_copy a0_ind a0_val a1_ind a1_val N i) (or (and (= a0_ind i) (= tmp_select_a a0_val)) (and (= a1_ind i) (= tmp_select_a a1_val)) (and (< i a0_ind) (< i a1_ind) (assert_190_21_5 a_copy0_ind a_copy0_val i tmp_select_a_copy i tmp_select_a a1_ind a1_val N i) (< i a0_ind) (assert_190_21_5 a_copy0_ind a_copy0_val i tmp_select_a_copy i tmp_select_a a0_ind a0_val N i)) (and (< a0_ind i) (< i a1_ind) (< i a1_ind) (assert_190_21_5 a_copy0_ind a_copy0_val i tmp_select_a_copy i tmp_select_a a1_ind a1_val N i) (< a0_ind i) (assert_190_21_5 a_copy0_ind a_copy0_val i tmp_select_a_copy a0_ind a0_val i tmp_select_a N i)) (and (< a1_ind i) (< a1_ind i) (assert_190_21_5 a_copy0_ind a_copy0_val i tmp_select_a_copy a1_ind a1_val i tmp_select_a N i) (< a0_ind i) (assert_190_21_5 a_copy0_ind a_copy0_val i tmp_select_a_copy a0_ind a0_val i tmp_select_a N i)))) (and (< a_copy1_ind i) (< a_copy1_ind i) (assert_190_21_5 a_copy1_ind a_copy1_val i tmp_select_a_copy a0_ind a0_val a1_ind a1_val N i) (or (and (= a0_ind i) (= tmp_select_a a0_val)) (and (= a1_ind i) (= tmp_select_a a1_val)) (and (< i a0_ind) (< i a1_ind) (assert_190_21_5 a_copy1_ind a_copy1_val i tmp_select_a_copy i tmp_select_a a1_ind a1_val N i) (< i a0_ind) (assert_190_21_5 a_copy1_ind a_copy1_val i tmp_select_a_copy i tmp_select_a a0_ind a0_val N i)) (and (< a0_ind i) (< i a1_ind) (< i a1_ind) (assert_190_21_5 a_copy1_ind a_copy1_val i tmp_select_a_copy i tmp_select_a a1_ind a1_val N i) (< a0_ind i) (assert_190_21_5 a_copy1_ind a_copy1_val i tmp_select_a_copy a0_ind a0_val i tmp_select_a N i)) (and (< a1_ind i) (< a1_ind i) (assert_190_21_5 a_copy1_ind a_copy1_val i tmp_select_a_copy a1_ind a1_val i tmp_select_a N i) (< a0_ind i) (assert_190_21_5 a_copy1_ind a_copy1_val i tmp_select_a_copy a0_ind a0_val i tmp_select_a N i))) (< a_copy0_ind i) (assert_190_21_5 a_copy0_ind a_copy0_val i tmp_select_a_copy a0_ind a0_val a1_ind a1_val N i) (or (and (= a0_ind i) (= tmp_select_a a0_val)) (and (= a1_ind i) (= tmp_select_a a1_val)) (and (< i a0_ind) (< i a1_ind) (assert_190_21_5 a_copy0_ind a_copy0_val i tmp_select_a_copy i tmp_select_a a1_ind a1_val N i) (< i a0_ind) (assert_190_21_5 a_copy0_ind a_copy0_val i tmp_select_a_copy i tmp_select_a a0_ind a0_val N i)) (and (< a0_ind i) (< i a1_ind) (< i a1_ind) (assert_190_21_5 a_copy0_ind a_copy0_val i tmp_select_a_copy i tmp_select_a a1_ind a1_val N i) (< a0_ind i) (assert_190_21_5 a_copy0_ind a_copy0_val i tmp_select_a_copy a0_ind a0_val i tmp_select_a N i)) (and (< a1_ind i) (< a1_ind i) (assert_190_21_5 a_copy0_ind a_copy0_val i tmp_select_a_copy a1_ind a1_val i tmp_select_a N i) (< a0_ind i) (assert_190_21_5 a_copy0_ind a_copy0_val i tmp_select_a_copy a0_ind a0_val i tmp_select_a N i)))))) (= tmp_select_a tmp_select_a_copy))))
(assert (forall ((N Int) (a0_ind Int) (a0_val Int) (a1_ind Int) (a1_val Int) (a_copy0_ind Int) (a_copy0_val Int) (a_copy1_ind Int) (a_copy1_val Int) (i Int)) (=> (and (< a0_ind a1_ind) (< a_copy0_ind a_copy1_ind) (assert_190_21_5 a_copy0_ind a_copy0_val a_copy1_ind a_copy1_val a0_ind a0_val a1_ind a1_val N i)) (assign_199_22_5 a_copy0_ind a_copy0_val a_copy1_ind a_copy1_val a0_ind a0_val a1_ind a1_val N i))))
;
;(assign)  i := (i+1)
(assert (forall ((N Int) (a0_ind Int) (a0_val Int) (a1_ind Int) (a1_val Int) (a_copy0_ind Int) (a_copy0_val Int) (a_copy1_ind Int) (a_copy1_val Int) (i Int)) (=> (and (< a0_ind a1_ind) (< a_copy0_ind a_copy1_ind) (assign_199_22_5 a_copy0_ind a_copy0_val a_copy1_ind a_copy1_val a0_ind a0_val a1_ind a1_val N i)) (while_202_19_1 a_copy0_ind a_copy0_val a_copy1_ind a_copy1_val a0_ind a0_val a1_ind a1_val N (+ i 1)))))
(check-sat)
